Code 3234
Dimension, Median
   128       16     
 Facility, Client, Transportation Cost
     1        1           2
     1        2           0
     1        3           0
     1        5           4
     1        9           1
     1       17           0
     1       33           4
     1       65           4
     2        1           2
     2        2           4
     2        4           0
     2        6           2
     2       10           1
     2       18           3
     2       34           4
     2       66           1
     3        1           1
     3        3           0
     3        4           1
     3        7           0
     3       11           0
     3       19           4
     3       35           4
     3       67           1
     4        2           0
     4        3           4
     4        4           3
     4        8           1
     4       12           1
     4       20           1
     4       36           0
     4       68           3
     5        1           1
     5        5           2
     5        6           0
     5        7           4
     5       13           0
     5       21           3
     5       37           0
     5       69           2
     6        2           1
     6        5           0
     6        6           0
     6        8           3
     6       14           2
     6       22           0
     6       38           2
     6       70           3
     7        3           1
     7        5           1
     7        7           2
     7        8           1
     7       15           0
     7       23           3
     7       39           3
     7       71           1
     8        4           0
     8        6           1
     8        7           1
     8        8           1
     8       16           3
     8       24           4
     8       40           2
     8       72           0
     9        1           2
     9        9           1
     9       10           1
     9       11           0
     9       13           2
     9       25           1
     9       41           0
     9       73           0
    10        2           2
    10        9           0
    10       10           0
    10       12           4
    10       14           4
    10       26           1
    10       42           3
    10       74           3
    11        3           0
    11        9           0
    11       11           1
    11       12           2
    11       15           4
    11       27           1
    11       43           2
    11       75           2
    12        4           1
    12       10           0
    12       11           0
    12       12           1
    12       16           4
    12       28           2
    12       44           4
    12       76           4
    13        5           3
    13        9           4
    13       13           3
    13       14           1
    13       15           2
    13       29           0
    13       45           3
    13       77           0
    14        6           1
    14       10           1
    14       13           1
    14       14           4
    14       16           2
    14       30           2
    14       46           3
    14       78           1
    15        7           1
    15       11           4
    15       13           3
    15       15           0
    15       16           3
    15       31           0
    15       47           1
    15       79           2
    16        8           4
    16       12           1
    16       14           1
    16       15           3
    16       16           3
    16       32           3
    16       48           2
    16       80           1
    17        1           0
    17       17           1
    17       18           1
    17       19           4
    17       21           0
    17       25           0
    17       49           0
    17       81           4
    18        2           0
    18       17           4
    18       18           3
    18       20           0
    18       22           2
    18       26           0
    18       50           1
    18       82           4
    19        3           1
    19       17           2
    19       19           2
    19       20           1
    19       23           2
    19       27           4
    19       51           1
    19       83           4
    20        4           0
    20       18           2
    20       19           1
    20       20           0
    20       24           1
    20       28           1
    20       52           3
    20       84           2
    21        5           3
    21       17           2
    21       21           2
    21       22           3
    21       23           1
    21       29           2
    21       53           1
    21       85           3
    22        6           2
    22       18           2
    22       21           3
    22       22           3
    22       24           4
    22       30           0
    22       54           1
    22       86           4
    23        7           0
    23       19           4
    23       21           0
    23       23           2
    23       24           0
    23       31           3
    23       55           2
    23       87           2
    24        8           2
    24       20           1
    24       22           2
    24       23           3
    24       24           1
    24       32           0
    24       56           1
    24       88           3
    25        9           0
    25       17           2
    25       25           4
    25       26           2
    25       27           1
    25       29           2
    25       57           0
    25       89           3
    26       10           1
    26       18           1
    26       25           0
    26       26           0
    26       28           3
    26       30           2
    26       58           3
    26       90           1
    27       11           3
    27       19           1
    27       25           3
    27       27           1
    27       28           3
    27       31           3
    27       59           4
    27       91           4
    28       12           2
    28       20           1
    28       26           2
    28       27           3
    28       28           2
    28       32           2
    28       60           1
    28       92           3
    29       13           0
    29       21           2
    29       25           0
    29       29           1
    29       30           3
    29       31           4
    29       61           2
    29       93           2
    30       14           2
    30       22           3
    30       26           2
    30       29           3
    30       30           3
    30       32           3
    30       62           3
    30       94           3
    31       15           0
    31       23           3
    31       27           1
    31       29           0
    31       31           4
    31       32           1
    31       63           3
    31       95           2
    32       16           2
    32       24           0
    32       28           0
    32       30           2
    32       31           2
    32       32           0
    32       64           1
    32       96           4
    33        1           1
    33       33           2
    33       34           0
    33       35           2
    33       37           2
    33       41           1
    33       49           3
    33       97           3
    34        2           1
    34       33           0
    34       34           1
    34       36           0
    34       38           4
    34       42           2
    34       50           3
    34       98           1
    35        3           1
    35       33           1
    35       35           1
    35       36           2
    35       39           4
    35       43           2
    35       51           4
    35       99           2
    36        4           3
    36       34           1
    36       35           2
    36       36           3
    36       40           3
    36       44           1
    36       52           3
    36      100           0
    37        5           3
    37       33           3
    37       37           3
    37       38           3
    37       39           1
    37       45           0
    37       53           1
    37      101           4
    38        6           0
    38       34           0
    38       37           4
    38       38           3
    38       40           2
    38       46           2
    38       54           3
    38      102           4
    39        7           1
    39       35           0
    39       37           2
    39       39           1
    39       40           4
    39       47           0
    39       55           1
    39      103           0
    40        8           0
    40       36           4
    40       38           3
    40       39           2
    40       40           0
    40       48           2
    40       56           4
    40      104           2
    41        9           4
    41       33           4
    41       41           0
    41       42           2
    41       43           0
    41       45           2
    41       57           2
    41      105           1
    42       10           2
    42       34           4
    42       41           3
    42       42           4
    42       44           3
    42       46           1
    42       58           4
    42      106           4
    43       11           2
    43       35           0
    43       41           3
    43       43           0
    43       44           1
    43       47           1
    43       59           1
    43      107           2
    44       12           3
    44       36           0
    44       42           3
    44       43           2
    44       44           4
    44       48           4
    44       60           4
    44      108           4
    45       13           4
    45       37           3
    45       41           3
    45       45           0
    45       46           2
    45       47           2
    45       61           1
    45      109           2
    46       14           2
    46       38           4
    46       42           2
    46       45           4
    46       46           3
    46       48           4
    46       62           0
    46      110           3
    47       15           2
    47       39           3
    47       43           0
    47       45           1
    47       47           1
    47       48           0
    47       63           3
    47      111           4
    48       16           2
    48       40           0
    48       44           0
    48       46           2
    48       47           4
    48       48           0
    48       64           4
    48      112           2
    49       17           3
    49       33           4
    49       49           2
    49       50           2
    49       51           1
    49       53           3
    49       57           2
    49      113           0
    50       18           3
    50       34           4
    50       49           4
    50       50           3
    50       52           0
    50       54           1
    50       58           3
    50      114           3
    51       19           4
    51       35           0
    51       49           0
    51       51           3
    51       52           4
    51       55           4
    51       59           2
    51      115           2
    52       20           0
    52       36           0
    52       50           0
    52       51           4
    52       52           1
    52       56           2
    52       60           2
    52      116           3
    53       21           4
    53       37           3
    53       49           4
    53       53           0
    53       54           3
    53       55           2
    53       61           4
    53      117           0
    54       22           4
    54       38           0
    54       50           4
    54       53           2
    54       54           2
    54       56           0
    54       62           1
    54      118           3
    55       23           4
    55       39           0
    55       51           2
    55       53           0
    55       55           1
    55       56           0
    55       63           0
    55      119           3
    56       24           4
    56       40           1
    56       52           3
    56       54           1
    56       55           2
    56       56           4
    56       64           2
    56      120           4
    57       25           4
    57       41           1
    57       49           3
    57       57           3
    57       58           4
    57       59           2
    57       61           3
    57      121           1
    58       26           4
    58       42           0
    58       50           0
    58       57           1
    58       58           2
    58       60           0
    58       62           1
    58      122           2
    59       27           2
    59       43           1
    59       51           0
    59       57           4
    59       59           1
    59       60           4
    59       63           4
    59      123           0
    60       28           3
    60       44           0
    60       52           0
    60       58           4
    60       59           4
    60       60           1
    60       64           0
    60      124           0
    61       29           2
    61       45           1
    61       53           4
    61       57           2
    61       61           4
    61       62           0
    61       63           4
    61      125           4
    62       30           4
    62       46           1
    62       54           2
    62       58           2
    62       61           4
    62       62           0
    62       64           3
    62      126           0
    63       31           0
    63       47           3
    63       55           4
    63       59           1
    63       61           1
    63       63           0
    63       64           1
    63      127           0
    64       32           3
    64       48           4
    64       56           1
    64       60           0
    64       62           4
    64       63           1
    64       64           3
    64      128           2
    65        1           3
    65       65           0
    65       66           0
    65       67           3
    65       69           2
    65       73           2
    65       81           4
    65       97           0
    66        2           1
    66       65           2
    66       66           0
    66       68           0
    66       70           4
    66       74           3
    66       82           1
    66       98           1
    67        3           1
    67       65           1
    67       67           2
    67       68           0
    67       71           4
    67       75           1
    67       83           2
    67       99           3
    68        4           3
    68       66           2
    68       67           4
    68       68           4
    68       72           3
    68       76           4
    68       84           2
    68      100           2
    69        5           3
    69       65           3
    69       69           3
    69       70           2
    69       71           4
    69       77           0
    69       85           1
    69      101           1
    70        6           1
    70       66           4
    70       69           0
    70       70           1
    70       72           1
    70       78           0
    70       86           0
    70      102           3
    71        7           4
    71       67           3
    71       69           1
    71       71           1
    71       72           1
    71       79           3
    71       87           4
    71      103           4
    72        8           0
    72       68           3
    72       70           0
    72       71           2
    72       72           1
    72       80           0
    72       88           2
    72      104           4
    73        9           3
    73       65           4
    73       73           3
    73       74           0
    73       75           3
    73       77           1
    73       89           3
    73      105           4
    74       10           1
    74       66           1
    74       73           2
    74       74           0
    74       76           1
    74       78           0
    74       90           3
    74      106           2
    75       11           3
    75       67           0
    75       73           0
    75       75           1
    75       76           1
    75       79           0
    75       91           4
    75      107           3
    76       12           4
    76       68           2
    76       74           1
    76       75           2
    76       76           1
    76       80           2
    76       92           0
    76      108           4
    77       13           2
    77       69           1
    77       73           0
    77       77           1
    77       78           4
    77       79           4
    77       93           3
    77      109           3
    78       14           2
    78       70           0
    78       74           3
    78       77           2
    78       78           2
    78       80           0
    78       94           1
    78      110           0
    79       15           0
    79       71           3
    79       75           2
    79       77           1
    79       79           2
    79       80           3
    79       95           2
    79      111           1
    80       16           3
    80       72           1
    80       76           0
    80       78           0
    80       79           1
    80       80           4
    80       96           1
    80      112           4
    81       17           3
    81       65           3
    81       81           0
    81       82           0
    81       83           1
    81       85           4
    81       89           4
    81      113           2
    82       18           2
    82       66           0
    82       81           4
    82       82           4
    82       84           4
    82       86           0
    82       90           2
    82      114           2
    83       19           0
    83       67           2
    83       81           2
    83       83           1
    83       84           3
    83       87           3
    83       91           3
    83      115           1
    84       20           1
    84       68           2
    84       82           1
    84       83           3
    84       84           3
    84       88           4
    84       92           1
    84      116           2
    85       21           1
    85       69           3
    85       81           2
    85       85           3
    85       86           3
    85       87           4
    85       93           2
    85      117           1
    86       22           2
    86       70           3
    86       82           3
    86       85           0
    86       86           0
    86       88           3
    86       94           0
    86      118           0
    87       23           4
    87       71           1
    87       83           3
    87       85           4
    87       87           4
    87       88           2
    87       95           0
    87      119           4
    88       24           4
    88       72           1
    88       84           2
    88       86           4
    88       87           2
    88       88           0
    88       96           1
    88      120           4
    89       25           3
    89       73           2
    89       81           0
    89       89           2
    89       90           2
    89       91           0
    89       93           3
    89      121           4
    90       26           0
    90       74           2
    90       82           0
    90       89           3
    90       90           1
    90       92           4
    90       94           4
    90      122           4
    91       27           3
    91       75           0
    91       83           1
    91       89           2
    91       91           2
    91       92           1
    91       95           0
    91      123           4
    92       28           1
    92       76           2
    92       84           0
    92       90           0
    92       91           2
    92       92           3
    92       96           2
    92      124           1
    93       29           0
    93       77           3
    93       85           3
    93       89           1
    93       93           3
    93       94           4
    93       95           2
    93      125           4
    94       30           4
    94       78           2
    94       86           1
    94       90           0
    94       93           3
    94       94           4
    94       96           0
    94      126           0
    95       31           4
    95       79           2
    95       87           0
    95       91           1
    95       93           1
    95       95           4
    95       96           2
    95      127           0
    96       32           3
    96       80           0
    96       88           2
    96       92           4
    96       94           4
    96       95           2
    96       96           3
    96      128           1
    97       33           4
    97       65           0
    97       97           2
    97       98           0
    97       99           3
    97      101           4
    97      105           2
    97      113           1
    98       34           0
    98       66           4
    98       97           1
    98       98           2
    98      100           1
    98      102           4
    98      106           3
    98      114           0
    99       35           2
    99       67           1
    99       97           0
    99       99           1
    99      100           3
    99      103           1
    99      107           1
    99      115           2
   100       36           0
   100       68           2
   100       98           1
   100       99           2
   100      100           1
   100      104           3
   100      108           3
   100      116           0
   101       37           2
   101       69           3
   101       97           4
   101      101           3
   101      102           0
   101      103           4
   101      109           4
   101      117           0
   102       38           2
   102       70           3
   102       98           2
   102      101           0
   102      102           1
   102      104           2
   102      110           3
   102      118           4
   103       39           4
   103       71           2
   103       99           3
   103      101           3
   103      103           2
   103      104           4
   103      111           2
   103      119           0
   104       40           2
   104       72           2
   104      100           3
   104      102           4
   104      103           3
   104      104           2
   104      112           0
   104      120           3
   105       41           0
   105       73           1
   105       97           3
   105      105           2
   105      106           1
   105      107           1
   105      109           1
   105      121           1
   106       42           0
   106       74           1
   106       98           0
   106      105           0
   106      106           4
   106      108           4
   106      110           4
   106      122           0
   107       43           3
   107       75           4
   107       99           0
   107      105           4
   107      107           4
   107      108           0
   107      111           4
   107      123           1
   108       44           0
   108       76           0
   108      100           2
   108      106           0
   108      107           3
   108      108           1
   108      112           1
   108      124           3
   109       45           3
   109       77           2
   109      101           1
   109      105           2
   109      109           0
   109      110           0
   109      111           3
   109      125           1
   110       46           3
   110       78           2
   110      102           2
   110      106           1
   110      109           4
   110      110           0
   110      112           1
   110      126           1
   111       47           4
   111       79           1
   111      103           2
   111      107           0
   111      109           2
   111      111           4
   111      112           1
   111      127           0
   112       48           0
   112       80           0
   112      104           0
   112      108           1
   112      110           1
   112      111           1
   112      112           1
   112      128           1
   113       49           0
   113       81           3
   113       97           1
   113      113           4
   113      114           2
   113      115           3
   113      117           4
   113      121           3
   114       50           2
   114       82           1
   114       98           4
   114      113           3
   114      114           1
   114      116           1
   114      118           0
   114      122           1
   115       51           0
   115       83           0
   115       99           2
   115      113           3
   115      115           2
   115      116           1
   115      119           1
   115      123           0
   116       52           2
   116       84           3
   116      100           2
   116      114           4
   116      115           0
   116      116           0
   116      120           2
   116      124           0
   117       53           1
   117       85           2
   117      101           4
   117      113           0
   117      117           0
   117      118           1
   117      119           4
   117      125           2
   118       54           2
   118       86           0
   118      102           1
   118      114           1
   118      117           1
   118      118           4
   118      120           4
   118      126           1
   119       55           0
   119       87           2
   119      103           2
   119      115           2
   119      117           2
   119      119           2
   119      120           1
   119      127           0
   120       56           4
   120       88           2
   120      104           1
   120      116           4
   120      118           3
   120      119           1
   120      120           2
   120      128           0
   121       57           3
   121       89           4
   121      105           3
   121      113           0
   121      121           1
   121      122           3
   121      123           1
   121      125           0
   122       58           3
   122       90           2
   122      106           4
   122      114           0
   122      121           1
   122      122           0
   122      124           1
   122      126           4
   123       59           3
   123       91           4
   123      107           4
   123      115           3
   123      121           3
   123      123           2
   123      124           0
   123      127           0
   124       60           1
   124       92           0
   124      108           4
   124      116           4
   124      122           2
   124      123           2
   124      124           4
   124      128           4
   125       61           3
   125       93           4
   125      109           1
   125      117           2
   125      121           0
   125      125           4
   125      126           0
   125      127           4
   126       62           2
   126       94           3
   126      110           2
   126      118           1
   126      122           2
   126      125           4
   126      126           1
   126      128           3
   127       63           3
   127       95           0
   127      111           3
   127      119           3
   127      123           1
   127      125           3
   127      127           0
   127      128           1
   128       64           0
   128       96           4
   128      112           2
   128      120           2
   128      124           2
   128      126           4
   128      127           3
   128      128           2
